%%%mzn-stat: initTime=0.028337167
%%%mzn-stat: objective=167
%%%mzn-stat: nodes=1203
%%%mzn-stat: restarts=0
%%%mzn-stat: peakDepth=628
%%%mzn-stat: solveTime=0.539182407
%%%mzn-stat: variables=2524
%%%mzn-stat: propagators=2090
%%%mzn-stat: failures=366
%%%mzn-stat: propagations=253130
%%%mzn-stat: nogoods=366
%%%mzn-stat: AverageConflictSize=12.062841530054644
%%%mzn-stat: NumUnitNogoodsLearned=166
%%%mzn-stat: AverageLearnedNogoodLength=122.3360655737705
%%%mzn-stat: AverageBacktrackAmount=0
%%%mzn-stat: AverageLbd=29.42349726775956
%%%mzn-stat-end
maxleg = 167;
succ = array1d(1..100,[97, 85, 32, 30, 4, 25, 2, 17, 93, 83, 12, 92, 6, 46, 9, 78, 16, 60, 48, 52, 26, 79, 82, 58, 54, 1, 84, 45, 61, 27, 66, 63, 18, 33, 98, 44, 8, 5, 43, 100, 47, 65, 55, 64, 96, 76, 3, 62, 88, 24, 50, 73, 75, 15, 70, 13, 36, 91, 53, 19, 57, 59, 21, 87, 22, 42, 31, 86, 90, 69, 74, 28, 34, 95, 81, 80, 10, 7, 72, 37, 94, 68, 89, 39, 29, 20, 71, 14, 35, 67, 23, 41, 40, 38, 56, 77, 49, 11, 51, 99]);
% time elapsed: 7.44 s
----------
==========
% time elapsed: 7.44 s
%%%mzn-stat: initTime=0.028337167
%%%mzn-stat: objective=167
%%%mzn-stat: nodes=1203
%%%mzn-stat: restarts=0
%%%mzn-stat: peakDepth=628
%%%mzn-stat: solveTime=0.539206915
%%%mzn-stat: variables=2524
%%%mzn-stat: propagators=2090
%%%mzn-stat: failures=366
%%%mzn-stat: propagations=253130
%%%mzn-stat: nogoods=366
%%%mzn-stat: AverageConflictSize=12.062841530054644
%%%mzn-stat: NumUnitNogoodsLearned=166
%%%mzn-stat: AverageLearnedNogoodLength=122.3360655737705
%%%mzn-stat: AverageBacktrackAmount=0
%%%mzn-stat: AverageLbd=29.42349726775956
%%%mzn-stat-end
